Copyright (C) 2013-2015, Filipe Brandao
Build (method = -2)
  #dp: 33057
  Step-3' Graph: 340 vertices and 13206 arcs (0.06s)
  Step-4' Graph: 282 vertices and 13090 arcs (0.06s)
  #V4/#V3 = 0.83
  #A4/#A3 = 0.99
Ready! (0.06s)
Optimize a model with 520 rows, 13091 columns and 38713 nonzeros
Found heuristic solution: objective 406
Presolve removed 102 rows and 132 columns
Presolve time: 0.07s
Presolved: 418 rows, 12959 columns, 37122 nonzeros
Variable types: 0 continuous, 12959 integer (7589 binary)
Optimize a model with 418 rows, 12959 columns and 37122 nonzeros
Presolved: 418 rows, 12959 columns, 37122 nonzeros

Root barrier log...

Ordering time: 0.00s

Barrier statistics:
 AA' NZ     : 1.932e+04
 Factor NZ  : 4.190e+04 (roughly 6 MBytes of memory)
 Factor Ops : 6.116e+06 (less than 1 second per iteration)
 Threads    : 1

                  Objective                Residual
Iter       Primal          Dual         Primal    Dual     Compl     Time
   0   2.00859409e+04 -2.45411654e+05  3.17e+05 1.83e-01  8.83e+01     0s
   1   5.48185619e+03 -4.79138772e+04  3.88e+04 3.77e-15  1.14e+01     0s
   2   1.35891905e+03 -1.23258803e+04  3.72e+03 4.22e-15  1.35e+00     0s
   3   7.02337647e+02 -3.05344662e+03  3.75e+02 2.55e-15  2.12e-01     0s
   4   3.93526286e+02 -4.65179117e+02  6.89e+01 2.44e-15  4.31e-02     0s
   5   3.20426668e+02 -2.39591661e+02  3.51e+01 2.74e-15  2.58e-02     0s
   6   2.84928300e+02 -8.30278778e+01  2.44e+01 3.00e-15  1.66e-02     0s
   7   2.34527161e+02  1.88624378e+00  9.63e+00 3.66e-15  9.77e-03     0s
   8   2.21604991e+02  5.44889138e+01  6.22e+00 3.34e-15  6.88e-03     0s
   9   2.14021125e+02  8.47065309e+01  4.19e+00 3.07e-15  5.24e-03     0s
  10   1.96518202e+02  1.42771986e+02  2.17e+00 2.78e-15  2.17e-03     0s
  11   1.89479639e+02  1.61884274e+02  9.49e-01 2.56e-15  1.09e-03     0s
  12   1.86836046e+02  1.64276814e+02  6.75e-01 3.12e-15  8.90e-04     0s
  13   1.83946800e+02  1.70853433e+02  3.74e-01 3.29e-15  5.14e-04     0s
  14   1.83415085e+02  1.73811129e+02  3.20e-01 3.60e-15  3.77e-04     0s
  15   1.81725400e+02  1.75767367e+02  1.58e-01 4.47e-15  2.33e-04     0s
  16   1.81008232e+02  1.76642754e+02  1.03e-01 3.71e-15  1.70e-04     0s
  17   1.80289405e+02  1.77708601e+02  4.69e-02 3.18e-15  1.00e-04     0s
  18   1.79884094e+02  1.78002167e+02  2.26e-02 3.56e-15  7.29e-05     0s
  19   1.79654964e+02  1.78417258e+02  1.06e-02 3.87e-15  4.78e-05     0s
  20   1.79606078e+02  1.78708021e+02  8.15e-03 4.25e-15  3.47e-05     0s
  21   1.79521039e+02  1.78902714e+02  5.01e-03 3.30e-15  2.39e-05     0s
  22   1.79475873e+02  1.79034814e+02  3.57e-03 3.32e-15  1.70e-05     0s
  23   1.79412351e+02  1.79151558e+02  1.62e-03 3.44e-15  1.01e-05     0s
  24   1.79381873e+02  1.79240707e+02  7.58e-04 3.23e-15  5.45e-06     0s
  25   1.79364096e+02  1.79305236e+02  3.21e-04 3.53e-15  2.27e-06     0s
  26   1.79350366e+02  1.79327204e+02  6.93e-05 2.66e-15  8.93e-07     0s
  27   1.79346199e+02  1.79345739e+02  1.39e-06 2.93e-15  1.77e-08     0s
  28   1.79346053e+02  1.79346053e+02  1.80e-11 2.95e-15  3.07e-13     0s

Barrier solved model in 28 iterations and 0.17 seconds
Optimal objective 1.79346053e+02


Root relaxation: objective 1.793461e+02, 379 iterations, 0.18 seconds

    Nodes    |    Current Node    |     Objective Bounds      |     Work
 Expl Unexpl |  Obj  Depth IntInf | Incumbent    BestBd   Gap | It/Node Time

     0     0  179.34605    0   54  406.00000  179.34605  55.8%     -    0s
H    0     0                     181.0000000  179.34605  0.91%     -    0s
H    0     0                     180.0000000  179.34605  0.36%     -    0s

Explored 0 nodes (967 simplex iterations) in 0.59 seconds
Thread count was 1 (of 4 available processors)

Optimal solution found (tolerance 0.00e+00)
Best objective 1.800000000000e+02, best bound 1.800000000000e+02, gap 0.0%
Preprocessing time: 0.09 seconds
Gurobi run time: 0.59 seconds
Total run time: 0.68 seconds
Objective: 180
Solution:
1 x [i=1, i=191]
1 x [i=2, i=192]
2 x [i=3, i=190]
1 x [i=4, i=189]
3 x [i=5, i=188]
2 x [i=6, i=193]
1 x [i=7, i=185]
1 x [i=8, i=184]
3 x [i=9, i=185]
1 x [i=10, i=183]
1 x [i=11, i=181]
1 x [i=12, i=186]
1 x [i=13, i=178]
2 x [i=14, i=180]
2 x [i=15, i=176]
1 x [i=16, i=175]
1 x [i=17, i=177]
2 x [i=18, i=172]
2 x [i=19, i=174]
1 x [i=20, i=168]
1 x [i=21, i=167]
2 x [i=22, i=182]
2 x [i=23, i=195]
1 x [i=24, i=162]
1 x [i=24, i=164]
1 x [i=25, i=165]
1 x [i=26, i=160]
1 x [i=26, i=166]
1 x [i=27, i=161]
1 x [i=27, i=169]
2 x [i=28, i=158]
1 x [i=29, i=170]
3 x [i=30, i=159]
1 x [i=31, i=157]
1 x [i=31, i=171]
1 x [i=32, i=156]
1 x [i=32, i=179]
4 x [i=33, i=163]
1 x [i=33, i=187]
1 x [i=34, i=194]
3 x [i=35, i=173]
2 x [i=36, i=154]
2 x [i=37, i=153]
1 x [i=38, i=151]
1 x [i=39, i=151]
1 x [i=40, i=151]
1 x [i=41, i=149]
1 x [i=42, i=152]
4 x [i=43, i=154]
2 x [i=44, i=150]
1 x [i=45, i=148]
1 x [i=46, i=147]
2 x [i=47, i=145]
1 x [i=47, i=155]
1 x [i=48, i=144]
1 x [i=49, i=144]
1 x [i=50, i=142]
2 x [i=51, i=142]
1 x [i=52, i=143]
1 x [i=53, i=140]
2 x [i=54, i=139]
1 x [i=55, i=138]
1 x [i=56, i=137]
1 x [i=57, i=141]
1 x [i=58, i=138]
1 x [i=58, i=142]
1 x [i=59, i=137]
1 x [i=59, i=138]
1 x [i=60, i=136]
1 x [i=60, i=231, i=233]
1 x [i=61, i=226, i=237]
1 x [i=62, i=135]
1 x [i=63, i=134]
1 x [i=63, i=227, i=233]
1 x [i=64, i=133]
1 x [i=65, i=133]
1 x [i=66, i=227, i=231]
1 x [i=67, i=131]
1 x [i=68, i=131]
1 x [i=68, i=132]
1 x [i=68, i=220, i=236]
1 x [i=68, i=227, i=229]
1 x [i=69, i=226, i=229]
1 x [i=70, i=130]
1 x [i=71, i=128]
1 x [i=71, i=129]
1 x [i=72, i=127]
1 x [i=72, i=225]
1 x [i=73, i=125]
1 x [i=73, i=220, i=228]
1 x [i=74, i=124]
1 x [i=75, i=123]
1 x [i=75, i=211, i=236]
1 x [i=76, i=219, i=225]
1 x [i=76, i=221, i=223]
1 x [i=77, i=210, i=235]
1 x [i=78, i=122]
1 x [i=79, i=120]
1 x [i=80, i=119]
1 x [i=81, i=118]
1 x [i=82, i=116]
1 x [i=82, i=118]
2 x [i=82, i=203, i=237]
1 x [i=82, i=215, i=222]
1 x [i=83, i=115]
1 x [i=83, i=117]
1 x [i=83, i=208, i=232]
1 x [i=84, i=214, i=220]
1 x [i=85, i=113]
1 x [i=86, i=112]
2 x [i=87, i=112]
1 x [i=87, i=207, i=229]
1 x [i=88, i=216, i=217]
1 x [i=89, i=111]
2 x [i=90, i=110]
1 x [i=91, i=110]
1 x [i=92, i=107]
1 x [i=93, i=108]
1 x [i=93, i=197, i=232]
2 x [i=94, i=106]
1 x [i=94, i=203, i=223]
1 x [i=95, i=104]
1 x [i=95, i=105]
1 x [i=95, i=208, i=218]
1 x [i=96, i=103]
1 x [i=96, i=104]
1 x [i=96, i=198, i=230]
1 x [i=96, i=199, i=228]
1 x [i=97, i=102]
1 x [i=98, i=100]
1 x [i=98, i=101]
1 x [i=98, i=208, i=217]
1 x [i=99, i=204, i=218]
1 x [i=99, i=209, i=212]
1 x [i=102, i=199, i=222]
1 x [i=107, i=206, i=213]
1 x [i=108, i=198, i=218]
1 x [i=108, i=206, i=210]
1 x [i=109, i=195, i=224]
1 x [i=114, i=206, i=206]
1 x [i=121, i=200, i=205]
1 x [i=126, i=199, i=201]
1 x [i=130, i=194, i=202]
1 x [i=130, i=196, i=199]
1 x [i=143, i=147, i=238]
1 x [i=146, i=147, i=234]
1 x [i=200, i=216, i=235]
